p cnf 20 36
100 0
104 0
201 202 203  0
301 302 303  0
401 402 403  0
-101 0
-102 0
-103 0
-201 -202 0
-201 -203 0
-202 -203 0
-301 -302 0
-301 -303 0
-302 -303 0
-401 -402 0
-401 -403 0
-402 -403 0
201 301 401  0
202 302 402  0
203 303 403  0
-200 0
-204 0
-300 0
-304 0
-400 0
-404 0
-201 -301 0
-201 -401 0
-301 -401 0
-202 -302 0
-202 -402 0
-302 -402 0
-203 -303 0
-203 -403 0
-303 -403 0
-100 201 -101 202 -102 203 -103 204 -200 101 -201 102 -202 103 -203 104 -100 301 -101 302 -102 303 -103 304 -300 101 -301 102 -302 103 -303 104 -200 301 -201 302 -202 303 -203 304 -300 201 -301 202 -302 203 -303 204 -100 101 -101 102 -102 103 -103 104 -400 101 -401 102 -402 103 -403 104  0
